\ENCODING=ISO-8859-1
\Problem name: ilog.cplex

Maximize
 obj: 1068 x(0)#0 + 567 x(1)#1 + 704 x(2)#2 + 973 x(3)#3 + 1047 x(4)#4
      + 874 x(5)#5 + 665 x(6)#6 + 580 x(7)#7 + 959 x(8)#8 + 618 x(9)#9
      + 848 x(10)#10 + 1031 x(11)#11 + 944 x(12)#12 + 852 x(13)#13
      + 436 x(14)#14 + 1096 x(15)#15 + 533 x(16)#16 + 767 x(17)#17
      + 819 x(18)#18 + 856 x(19)#19 + 622 x(20)#20 + 848 x(21)#21
      + 916 x(22)#22 + 535 x(23)#23 + 1045 x(24)#24 + 425 x(25)#25
      + 1088 x(26)#26 + 702 x(27)#27 + 995 x(28)#28 + 574 x(29)#29
      + 817 x(30)#30 + 960 x(31)#31 + 884 x(32)#32 + 661 x(33)#33
      + 759 x(34)#34 + 753 x(35)#35 + 738 x(36)#36 + 538 x(37)#37
      + 520 x(38)#38 + 934 x(39)#39 + 806 x(40)#40 + 807 x(41)#41
      + 653 x(42)#42 + 555 x(43)#43 + 762 x(44)#44 + 554 x(45)#45
      + 1039 x(46)#46 + 662 x(47)#47 + 1046 x(48)#48 + 645 x(49)#49
      + 682 x(50)#50 + 599 x(51)#51 + 591 x(52)#52 + 642 x(53)#53
      + 1006 x(54)#54 + 633 x(55)#55 + 1055 x(56)#56 + 631 x(57)#57
      + 761 x(58)#58 + 430 x(59)#59 + 644 x(60)#60 + 1024 x(61)#61
      + 933 x(62)#62 + 745 x(63)#63 + 578 x(64)#64 + 1067 x(65)#65
      + 888 x(66)#66 + 680 x(67)#67 + 442 x(68)#68 + 946 x(69)#69
      + 652 x(70)#70 + 689 x(71)#71 + 753 x(72)#72 + 913 x(73)#73
      + 1197 x(74)#74 + 518 x(75)#75 + 517 x(76)#76 + 535 x(77)#77
      + 619 x(78)#78 + 838 x(79)#79 + 576 x(80)#80 + 749 x(81)#81
      + 946 x(82)#82 + 713 x(83)#83 + 482 x(84)#84 + 540 x(85)#85
      + 966 x(86)#86 + 1074 x(87)#87 + 276 x(88)#88 + 653 x(89)#89
      + 971 x(90)#90 + 968 x(91)#91 + 918 x(92)#92 + 915 x(93)#93
      + 997 x(94)#94 + 437 x(95)#95 + 434 x(96)#96 + 643 x(97)#97
      + 837 x(98)#98 + 789 x(99)#99
Subject To
 c1: 495 x(0)#0 + 707 x(1)#1 + 875 x(2)#2 + 928 x(3)#3 + 542 x(4)#4
     + 474 x(5)#5 + 824 x(6)#6 + 312 x(7)#7 + 266 x(8)#8 + 682 x(9)#9
     + 366 x(10)#10 + 999 x(11)#11 + 147 x(12)#12 + 823 x(13)#13 + 86 x(14)#14
     + 841 x(15)#15 + 371 x(16)#16 + 853 x(17)#17 + 68 x(18)#18 + 815 x(19)#19
     + 88 x(20)#20 + 935 x(21)#21 + 503 x(22)#22 + 785 x(23)#23 + 407 x(24)#24
     + 172 x(25)#25 + 663 x(26)#26 + 415 x(27)#27 + 243 x(28)#28 + 760 x(29)#29
     + 323 x(30)#30 + 902 x(31)#31 + 783 x(32)#32 + 675 x(33)#33 + 521 x(34)#34
     + 466 x(35)#35 + 521 x(36)#36 + 620 x(37)#37 + 533 x(38)#38 + 208 x(39)#39
     + 634 x(40)#40 + 483 x(41)#41 + 542 x(42)#42 + 832 x(43)#43 + 648 x(44)#44
     + 441 x(45)#45 + 939 x(46)#46 + 380 x(47)#47 + 938 x(48)#48 + 640 x(49)#49
     + 721 x(50)#50 + 340 x(51)#51 + 390 x(52)#52 + 42 x(53)#53 + 705 x(54)#54
     + 517 x(55)#55 + 5 x(56)#56 + 315 x(57)#57 + 331 x(58)#58 + 534 x(59)#59
     + 305 x(60)#60 + 941 x(61)#61 + 165 x(62)#62 + 40 x(63)#63 + 332 x(64)#64
     + 983 x(65)#65 + 770 x(66)#66 + 264 x(67)#67 + 7 x(68)#68 + 525 x(69)#69
     + 475 x(70)#70 + 798 x(71)#71 + 509 x(72)#72 + 438 x(73)#73 + 77 x(74)#74
     + 626 x(75)#75 + 30 x(76)#76 + 591 x(77)#77 + 696 x(78)#78 + 84 x(79)#79
     + 346 x(80)#80 + 619 x(81)#81 + 595 x(82)#82 + 504 x(83)#83 + 971 x(84)#84
     + 559 x(85)#85 + 792 x(86)#86 + 940 x(87)#87 + 281 x(88)#88 + 55 x(89)#89
     + 524 x(90)#90 + 561 x(91)#91 + 485 x(92)#92 + 963 x(93)#93 + 290 x(94)#94
     + 51 x(95)#95 + 692 x(96)#96 + 807 x(97)#97 + 852 x(98)#98 + 737 x(99)#99
     <= 13164
 c2: 377 x(0)#0 + 556 x(1)#1 + 313 x(2)#2 + 90 x(3)#3 + 505 x(4)#4 + 18 x(5)#5
     + 101 x(6)#6 + 582 x(7)#7 + 941 x(8)#8 + 459 x(9)#9 + 515 x(10)#10
     + 959 x(11)#11 + 850 x(12)#12 + 597 x(13)#13 + 523 x(14)#14 + 724 x(15)#15
     + 256 x(16)#16 + 831 x(17)#17 + 764 x(18)#18 + 940 x(19)#19 + 780 x(20)#20
     + 881 x(21)#21 + 280 x(22)#22 + 82 x(23)#23 + 862 x(24)#24 + 65 x(25)#25
     + 346 x(26)#26 + 205 x(27)#27 + 434 x(28)#28 + 354 x(29)#29 + 128 x(30)#30
     + 141 x(31)#31 + 407 x(32)#32 + 499 x(33)#33 + 153 x(34)#34 + 548 x(35)#35
     + 329 x(36)#36 + 192 x(37)#37 + 565 x(38)#38 + 898 x(39)#39 + 894 x(40)#40
     + 642 x(41)#41 + 302 x(42)#42 + 7 x(43)#43 + 331 x(44)#44 + 647 x(45)#45
     + 858 x(46)#46 + 790 x(47)#47 + 604 x(48)#48 + 82 x(49)#49 + 365 x(50)#50
     + 94 x(51)#51 + 830 x(52)#52 + 9 x(53)#53 + 769 x(54)#54 + 984 x(55)#55
     + 917 x(56)#56 + 672 x(57)#57 + 189 x(58)#58 + 232 x(59)#59 + 676 x(60)#60
     + 97 x(61)#61 + 783 x(62)#62 + 500 x(63)#63 + 271 x(64)#64 + 480 x(65)#65
     + 841 x(66)#66 + 629 x(67)#67 + 162 x(68)#68 + 191 x(69)#69 + 316 x(70)#70
     + 616 x(71)#71 + 337 x(72)#72 + 855 x(73)#73 + 935 x(74)#74 + 915 x(75)#75
     + 148 x(76)#76 + 105 x(77)#77 + 150 x(78)#78 + 800 x(79)#79 + 312 x(80)#80
     + 879 x(81)#81 + 547 x(82)#82 + 899 x(83)#83 + 6 x(84)#84 + 454 x(85)#85
     + 213 x(86)#86 + 459 x(87)#87 + 65 x(88)#88 + 320 x(89)#89 + 723 x(90)#90
     + 779 x(91)#91 + 786 x(92)#92 + 3 x(93)#93 + 127 x(94)#94 + 214 x(95)#95
     + 84 x(96)#96 + 580 x(97)#97 + 970 x(98)#98 + 636 x(99)#99 <= 12033
 c3: 278 x(0)#0 + 49 x(1)#1 + 491 x(2)#2 + 78 x(3)#3 + 884 x(4)#4 + 456 x(5)#5
     + 503 x(6)#6 + 291 x(7)#7 + 981 x(8)#8 + 106 x(9)#9 + 472 x(10)#10
     + 385 x(11)#11 + 771 x(12)#12 + 744 x(13)#13 + 238 x(14)#14 + 306 x(15)#15
     + 740 x(16)#16 + 193 x(17)#17 + 733 x(18)#18 + 540 x(19)#19 + 122 x(20)#20
     + 425 x(21)#21 + 524 x(22)#22 + 182 x(23)#23 + 989 x(24)#24 + 770 x(25)#25
     + 833 x(26)#26 + 219 x(27)#27 + 587 x(28)#28 + 686 x(29)#29 + 340 x(30)#30
     + 169 x(31)#31 + 965 x(32)#32 + 756 x(33)#33 + 123 x(34)#34 + 6 x(35)#35
     + 554 x(36)#36 + 686 x(37)#37 + 71 x(38)#38 + 735 x(39)#39 + 295 x(40)#40
     + 212 x(41)#41 + 24 x(42)#42 + 553 x(43)#43 + 613 x(44)#44 + 234 x(45)#45
     + 877 x(46)#46 + 491 x(47)#47 + 713 x(48)#48 + 770 x(49)#49 + 506 x(50)#50
     + 793 x(51)#51 + 305 x(52)#52 + 282 x(53)#53 + 375 x(54)#54 + 2 x(55)#55
     + 756 x(56)#56 + 660 x(57)#57 + 629 x(58)#58 + 292 x(59)#59 + 230 x(60)#60
     + 871 x(61)#61 + 192 x(62)#62 + 212 x(63)#63 + 62 x(64)#64 + 568 x(65)#65
     + 602 x(66)#66 + 888 x(67)#67 + 528 x(68)#68 + 896 x(69)#69 + 213 x(70)#70
     + 232 x(71)#71 + 801 x(72)#72 + 780 x(73)#73 + 902 x(74)#74 + 80 x(75)#75
     + 567 x(76)#76 + 632 x(77)#77 + 578 x(78)#78 + 551 x(79)#79 + 620 x(80)#80
     + 689 x(81)#81 + 602 x(82)#82 + 164 x(83)#83 + 534 x(84)#84 + 68 x(85)#85
     + 110 x(86)#86 + 485 x(87)#87 + 343 x(88)#88 + 897 x(89)#89 + 907 x(90)#90
     + 744 x(91)#91 + 861 x(92)#92 + 319 x(93)#93 + 580 x(94)#94 + 206 x(95)#95
     + 425 x(96)#96 + 775 x(97)#97 + 145 x(98)#98 + 514 x(99)#99 <= 12184
 c4: 929 x(0)#0 + 88 x(1)#1 + 946 x(2)#2 + 525 x(3)#3 + 836 x(4)#4 + 205 x(5)#5
     + 722 x(6)#6 + 118 x(7)#7 + 832 x(8)#8 + 560 x(9)#9 + 732 x(10)#10
     + 268 x(11)#11 + 14 x(12)#12 + 485 x(13)#13 + 918 x(14)#14 + 596 x(15)#15
     + 592 x(16)#16 + 374 x(17)#17 + 464 x(18)#18 + 569 x(19)#19 + 559 x(20)#20
     + 971 x(21)#21 + 579 x(22)#22 + 263 x(23)#23 + 959 x(24)#24 + 326 x(25)#25
     + 929 x(26)#26 + 45 x(27)#27 + 463 x(28)#28 + 391 x(29)#29 + 328 x(30)#30
     + 821 x(31)#31 + 506 x(32)#32 + 907 x(33)#33 + 30 x(34)#34 + 278 x(35)#35
     + 447 x(36)#36 + 373 x(37)#37 + 764 x(38)#38 + 588 x(39)#39 + 241 x(40)#40
     + 523 x(41)#41 + 402 x(42)#42 + 116 x(43)#43 + 694 x(44)#44 + 423 x(45)#45
     + 710 x(46)#46 + 177 x(47)#47 + 967 x(48)#48 + 138 x(49)#49 + 684 x(50)#50
     + 109 x(51)#51 + 996 x(52)#52 + 400 x(53)#53 + 988 x(54)#54 + 305 x(55)#55
     + 708 x(56)#56 + 371 x(57)#57 + 247 x(58)#58 + 83 x(59)#59 + 904 x(60)#60
     + 464 x(61)#61 + 855 x(62)#62 + 514 x(63)#63 + 949 x(64)#64 + 116 x(65)#65
     + 433 x(66)#66 + 75 x(67)#67 + 235 x(68)#68 + 133 x(69)#69 + 131 x(70)#70
     + 249 x(71)#71 + 793 x(72)#72 + 904 x(73)#73 + 934 x(74)#74 + 558 x(75)#75
     + 476 x(76)#76 + 566 x(77)#77 + 58 x(78)#78 + 764 x(79)#79 + 548 x(80)#80
     + 942 x(81)#81 + 996 x(82)#82 + 953 x(83)#83 + 565 x(84)#84 + 200 x(85)#85
     + 304 x(86)#86 + 398 x(87)#87 + 461 x(88)#88 + 279 x(89)#89 + 678 x(90)#90
     + 823 x(91)#91 + 954 x(92)#92 + 540 x(93)#93 + 718 x(94)#94 + 600 x(95)#95
     + 346 x(96)#96 + 121 x(97)#97 + 635 x(98)#98 + 956 x(99)#99 <= 13178
 c5: 887 x(0)#0 + 133 x(1)#1 + 57 x(2)#2 + 933 x(3)#3 + 657 x(4)#4 + 737 x(5)#5
     + 110 x(6)#6 + 978 x(7)#7 + 33 x(8)#8 + 707 x(9)#9 + 706 x(10)#10
     + 51 x(11)#11 + 622 x(12)#12 + 18 x(13)#13 + 366 x(14)#14 + 638 x(15)#15
     + 658 x(16)#16 + 885 x(17)#17 + 518 x(18)#18 + 215 x(19)#19 + 434 x(20)#20
     + 521 x(21)#21 + 414 x(22)#22 + 529 x(23)#23 + 143 x(24)#24 + 193 x(25)#25
     + 573 x(26)#26 + 695 x(27)#27 + 952 x(28)#28 + 443 x(29)#29 + 556 x(30)#30
     + 953 x(31)#31 + 340 x(32)#32 + 52 x(33)#33 + 829 x(34)#34 + 312 x(35)#35
     + 400 x(36)#36 + 699 x(37)#37 + 227 x(38)#38 + 680 x(39)#39 + 748 x(40)#40
     + 902 x(41)#41 + 454 x(42)#42 + 808 x(43)#43 + 413 x(44)#44 + 176 x(45)#45
     + 435 x(46)#46 + 850 x(47)#47 + 988 x(48)#48 + 229 x(49)#49 + 749 x(50)#50
     + 891 x(51)#51 + 81 x(52)#52 + 450 x(53)#53 + 318 x(54)#54 + 81 x(55)#55
     + 551 x(56)#56 + 191 x(57)#57 + 668 x(58)#58 + 488 x(59)#59 + 959 x(60)#60
     + 482 x(61)#61 + 860 x(62)#62 + 483 x(63)#63 + 313 x(64)#64 + 763 x(65)#65
     + 630 x(66)#66 + 594 x(67)#67 + 294 x(68)#68 + 817 x(69)#69 + 486 x(70)#70
     + 424 x(71)#71 + 862 x(72)#72 + 471 x(73)#73 + 694 x(74)#74 + 106 x(75)#75
     + 315 x(76)#76 + 174 x(77)#77 + 124 x(78)#78 + 271 x(79)#79 + 586 x(80)#80
     + 273 x(81)#81 + 479 x(82)#82 + 705 x(83)#83 + 188 x(84)#84 + 530 x(85)#85
     + 1000 x(86)#86 + 888 x(87)#87 + 41 x(88)#88 + 640 x(89)#89 + 307 x(90)#90
     + 201 x(91)#91 + 424 x(92)#92 + 821 x(93)#93 + 954 x(94)#94 + 185 x(95)#95
     + 78 x(96)#96 + 705 x(97)#97 + 470 x(98)#98 + 828 x(99)#99 <= 12688
Bounds
 0 <= x(0)#0 <= 1
 0 <= x(1)#1 <= 1
 0 <= x(2)#2 <= 1
 0 <= x(3)#3 <= 1
 0 <= x(4)#4 <= 1
 0 <= x(5)#5 <= 1
 0 <= x(6)#6 <= 1
 0 <= x(7)#7 <= 1
 0 <= x(8)#8 <= 1
 0 <= x(9)#9 <= 1
 0 <= x(10)#10 <= 1
 0 <= x(11)#11 <= 1
 0 <= x(12)#12 <= 1
 0 <= x(13)#13 <= 1
 0 <= x(14)#14 <= 1
 0 <= x(15)#15 <= 1
 0 <= x(16)#16 <= 1
 0 <= x(17)#17 <= 1
 0 <= x(18)#18 <= 1
 0 <= x(19)#19 <= 1
 0 <= x(20)#20 <= 1
 0 <= x(21)#21 <= 1
 0 <= x(22)#22 <= 1
 0 <= x(23)#23 <= 1
 0 <= x(24)#24 <= 1
 0 <= x(25)#25 <= 1
 0 <= x(26)#26 <= 1
 0 <= x(27)#27 <= 1
 0 <= x(28)#28 <= 1
 0 <= x(29)#29 <= 1
 0 <= x(30)#30 <= 1
 0 <= x(31)#31 <= 1
 0 <= x(32)#32 <= 1
 0 <= x(33)#33 <= 1
 0 <= x(34)#34 <= 1
 0 <= x(35)#35 <= 1
 0 <= x(36)#36 <= 1
 0 <= x(37)#37 <= 1
 0 <= x(38)#38 <= 1
 0 <= x(39)#39 <= 1
 0 <= x(40)#40 <= 1
 0 <= x(41)#41 <= 1
 0 <= x(42)#42 <= 1
 0 <= x(43)#43 <= 1
 0 <= x(44)#44 <= 1
 0 <= x(45)#45 <= 1
 0 <= x(46)#46 <= 1
 0 <= x(47)#47 <= 1
 0 <= x(48)#48 <= 1
 0 <= x(49)#49 <= 1
 0 <= x(50)#50 <= 1
 0 <= x(51)#51 <= 1
 0 <= x(52)#52 <= 1
 0 <= x(53)#53 <= 1
 0 <= x(54)#54 <= 1
 0 <= x(55)#55 <= 1
 0 <= x(56)#56 <= 1
 0 <= x(57)#57 <= 1
 0 <= x(58)#58 <= 1
 0 <= x(59)#59 <= 1
 0 <= x(60)#60 <= 1
 0 <= x(61)#61 <= 1
 0 <= x(62)#62 <= 1
 0 <= x(63)#63 <= 1
 0 <= x(64)#64 <= 1
 0 <= x(65)#65 <= 1
 0 <= x(66)#66 <= 1
 0 <= x(67)#67 <= 1
 0 <= x(68)#68 <= 1
 0 <= x(69)#69 <= 1
 0 <= x(70)#70 <= 1
 0 <= x(71)#71 <= 1
 0 <= x(72)#72 <= 1
 0 <= x(73)#73 <= 1
 0 <= x(74)#74 <= 1
 0 <= x(75)#75 <= 1
 0 <= x(76)#76 <= 1
 0 <= x(77)#77 <= 1
 0 <= x(78)#78 <= 1
 0 <= x(79)#79 <= 1
 0 <= x(80)#80 <= 1
 0 <= x(81)#81 <= 1
 0 <= x(82)#82 <= 1
 0 <= x(83)#83 <= 1
 0 <= x(84)#84 <= 1
 0 <= x(85)#85 <= 1
 0 <= x(86)#86 <= 1
 0 <= x(87)#87 <= 1
 0 <= x(88)#88 <= 1
 0 <= x(89)#89 <= 1
 0 <= x(90)#90 <= 1
 0 <= x(91)#91 <= 1
 0 <= x(92)#92 <= 1
 0 <= x(93)#93 <= 1
 0 <= x(94)#94 <= 1
 0 <= x(95)#95 <= 1
 0 <= x(96)#96 <= 1
 0 <= x(97)#97 <= 1
 0 <= x(98)#98 <= 1
 0 <= x(99)#99 <= 1
Generals
 x(0)#0  x(1)#1  x(2)#2  x(3)#3  x(4)#4  x(5)#5  x(6)#6  x(7)#7  x(8)#8 
 x(9)#9  x(10)#10  x(11)#11  x(12)#12  x(13)#13  x(14)#14  x(15)#15  x(16)#16 
 x(17)#17  x(18)#18  x(19)#19  x(20)#20  x(21)#21  x(22)#22  x(23)#23 
 x(24)#24  x(25)#25  x(26)#26  x(27)#27  x(28)#28  x(29)#29  x(30)#30 
 x(31)#31  x(32)#32  x(33)#33  x(34)#34  x(35)#35  x(36)#36  x(37)#37 
 x(38)#38  x(39)#39  x(40)#40  x(41)#41  x(42)#42  x(43)#43  x(44)#44 
 x(45)#45  x(46)#46  x(47)#47  x(48)#48  x(49)#49  x(50)#50  x(51)#51 
 x(52)#52  x(53)#53  x(54)#54  x(55)#55  x(56)#56  x(57)#57  x(58)#58 
 x(59)#59  x(60)#60  x(61)#61  x(62)#62  x(63)#63  x(64)#64  x(65)#65 
 x(66)#66  x(67)#67  x(68)#68  x(69)#69  x(70)#70  x(71)#71  x(72)#72 
 x(73)#73  x(74)#74  x(75)#75  x(76)#76  x(77)#77  x(78)#78  x(79)#79 
 x(80)#80  x(81)#81  x(82)#82  x(83)#83  x(84)#84  x(85)#85  x(86)#86 
 x(87)#87  x(88)#88  x(89)#89  x(90)#90  x(91)#91  x(92)#92  x(93)#93 
 x(94)#94  x(95)#95  x(96)#96  x(97)#97  x(98)#98  x(99)#99 
End
